NAME : berlin52_solution.tour
TYPE : TOUR
DIMENSION : 53
COMMENT : Tour length: 10784.6567
COMMENT : Time elapsed: 37.45 [s]
TOUR_SECTION
0
42
32
10
51
13
12
28
19
22
20
30
21
31
44
18
2
17
4
5
3
24
23
47
34
33
43
45
46
25
26
27
50
11
15
49
29
41
1
6
16
40
7
8
9
14
37
36
39
38
35
48
0
-1
EOF
